c File: flat50_3_0.col
c
c SOURCE: Joseph Culberson (joe@cs.ualberta.ca)
c DESCRIPTION: Quasi-random coloring problem
c              generated with flatness = 0
c                             probability = 0.139
c                             known coloring = 3
c                             random seed = 1931
c              Creation Date:  Tue Jun  9 12:21:27 1998
c Maximum degree = 8 Minimum degree = 0
c p edge 50 115
c cnf created by edge2cnf
p cnf 150 545
-1 -2 0
-1 -3 0
-2 -3 0
1 2 3 0
-4 -5 0
-4 -6 0
-5 -6 0
4 5 6 0
-7 -8 0
-7 -9 0
-8 -9 0
7 8 9 0
-10 -11 0
-10 -12 0
-11 -12 0
10 11 12 0
-13 -14 0
-13 -15 0
-14 -15 0
13 14 15 0
-16 -17 0
-16 -18 0
-17 -18 0
16 17 18 0
-19 -20 0
-19 -21 0
-20 -21 0
19 20 21 0
-22 -23 0
-22 -24 0
-23 -24 0
22 23 24 0
-25 -26 0
-25 -27 0
-26 -27 0
25 26 27 0
-28 -29 0
-28 -30 0
-29 -30 0
28 29 30 0
-31 -32 0
-31 -33 0
-32 -33 0
31 32 33 0
-34 -35 0
-34 -36 0
-35 -36 0
34 35 36 0
-37 -38 0
-37 -39 0
-38 -39 0
37 38 39 0
-40 -41 0
-40 -42 0
-41 -42 0
40 41 42 0
-43 -44 0
-43 -45 0
-44 -45 0
43 44 45 0
-46 -47 0
-46 -48 0
-47 -48 0
46 47 48 0
-49 -50 0
-49 -51 0
-50 -51 0
49 50 51 0
-52 -53 0
-52 -54 0
-53 -54 0
52 53 54 0
-55 -56 0
-55 -57 0
-56 -57 0
55 56 57 0
-58 -59 0
-58 -60 0
-59 -60 0
58 59 60 0
-61 -62 0
-61 -63 0
-62 -63 0
61 62 63 0
-64 -65 0
-64 -66 0
-65 -66 0
64 65 66 0
-67 -68 0
-67 -69 0
-68 -69 0
67 68 69 0
-70 -71 0
-70 -72 0
-71 -72 0
70 71 72 0
-73 -74 0
-73 -75 0
-74 -75 0
73 74 75 0
-76 -77 0
-76 -78 0
-77 -78 0
76 77 78 0
-79 -80 0
-79 -81 0
-80 -81 0
79 80 81 0
-82 -83 0
-82 -84 0
-83 -84 0
82 83 84 0
-85 -86 0
-85 -87 0
-86 -87 0
85 86 87 0
-88 -89 0
-88 -90 0
-89 -90 0
88 89 90 0
-91 -92 0
-91 -93 0
-92 -93 0
91 92 93 0
-94 -95 0
-94 -96 0
-95 -96 0
94 95 96 0
-97 -98 0
-97 -99 0
-98 -99 0
97 98 99 0
-100 -101 0
-100 -102 0
-101 -102 0
100 101 102 0
-103 -104 0
-103 -105 0
-104 -105 0
103 104 105 0
-106 -107 0
-106 -108 0
-107 -108 0
106 107 108 0
-109 -110 0
-109 -111 0
-110 -111 0
109 110 111 0
-112 -113 0
-112 -114 0
-113 -114 0
112 113 114 0
-115 -116 0
-115 -117 0
-116 -117 0
115 116 117 0
-118 -119 0
-118 -120 0
-119 -120 0
118 119 120 0
-121 -122 0
-121 -123 0
-122 -123 0
121 122 123 0
-124 -125 0
-124 -126 0
-125 -126 0
124 125 126 0
-127 -128 0
-127 -129 0
-128 -129 0
127 128 129 0
-130 -131 0
-130 -132 0
-131 -132 0
130 131 132 0
-133 -134 0
-133 -135 0
-134 -135 0
133 134 135 0
-136 -137 0
-136 -138 0
-137 -138 0
136 137 138 0
-139 -140 0
-139 -141 0
-140 -141 0
139 140 141 0
-142 -143 0
-142 -144 0
-143 -144 0
142 143 144 0
-145 -146 0
-145 -147 0
-146 -147 0
145 146 147 0
-148 -149 0
-148 -150 0
-149 -150 0
148 149 150 0
-55 -1 0
-56 -2 0
-57 -3 0
-70 -1 0
-71 -2 0
-72 -3 0
-91 -1 0
-92 -2 0
-93 -3 0
-100 -1 0
-101 -2 0
-102 -3 0
-103 -1 0
-104 -2 0
-105 -3 0
-109 -1 0
-110 -2 0
-111 -3 0
-136 -1 0
-137 -2 0
-138 -3 0
-85 -4 0
-86 -5 0
-87 -6 0
-97 -4 0
-98 -5 0
-99 -6 0
-109 -4 0
-110 -5 0
-111 -6 0
-133 -4 0
-134 -5 0
-135 -6 0
-73 -7 0
-74 -8 0
-75 -9 0
-85 -7 0
-86 -8 0
-87 -9 0
-142 -7 0
-143 -8 0
-144 -9 0
-64 -10 0
-65 -11 0
-66 -12 0
-76 -10 0
-77 -11 0
-78 -12 0
-94 -10 0
-95 -11 0
-96 -12 0
-118 -10 0
-119 -11 0
-120 -12 0
-130 -10 0
-131 -11 0
-132 -12 0
-133 -10 0
-134 -11 0
-135 -12 0
-52 -13 0
-53 -14 0
-54 -15 0
-79 -13 0
-80 -14 0
-81 -15 0
-94 -13 0
-95 -14 0
-96 -15 0
-100 -13 0
-101 -14 0
-102 -15 0
-121 -13 0
-122 -14 0
-123 -15 0
-52 -16 0
-53 -17 0
-54 -18 0
-88 -16 0
-89 -17 0
-90 -18 0
-103 -16 0
-104 -17 0
-105 -18 0
-106 -16 0
-107 -17 0
-108 -18 0
-112 -16 0
-113 -17 0
-114 -18 0
-70 -19 0
-71 -20 0
-72 -21 0
-76 -19 0
-77 -20 0
-78 -21 0
-85 -19 0
-86 -20 0
-87 -21 0
-103 -19 0
-104 -20 0
-105 -21 0
-127 -19 0
-128 -20 0
-129 -21 0
-142 -19 0
-143 -20 0
-144 -21 0
-70 -22 0
-71 -23 0
-72 -24 0
-73 -22 0
-74 -23 0
-75 -24 0
-88 -22 0
-89 -23 0
-90 -24 0
-118 -22 0
-119 -23 0
-120 -24 0
-127 -22 0
-128 -23 0
-129 -24 0
-136 -22 0
-137 -23 0
-138 -24 0
-70 -25 0
-71 -26 0
-72 -27 0
-79 -25 0
-80 -26 0
-81 -27 0
-82 -25 0
-83 -26 0
-84 -27 0
-52 -28 0
-53 -29 0
-54 -30 0
-79 -28 0
-80 -29 0
-81 -30 0
-88 -28 0
-89 -29 0
-90 -30 0
-97 -28 0
-98 -29 0
-99 -30 0
-52 -31 0
-53 -32 0
-54 -33 0
-67 -31 0
-68 -32 0
-69 -33 0
-91 -31 0
-92 -32 0
-93 -33 0
-133 -31 0
-134 -32 0
-135 -33 0
-136 -31 0
-137 -32 0
-138 -33 0
-145 -31 0
-146 -32 0
-147 -33 0
-73 -34 0
-74 -35 0
-75 -36 0
-103 -34 0
-104 -35 0
-105 -36 0
-106 -34 0
-107 -35 0
-108 -36 0
-127 -34 0
-128 -35 0
-129 -36 0
-130 -34 0
-131 -35 0
-132 -36 0
-55 -37 0
-56 -38 0
-57 -39 0
-115 -37 0
-116 -38 0
-117 -39 0
-121 -37 0
-122 -38 0
-123 -39 0
-148 -37 0
-149 -38 0
-150 -39 0
-73 -40 0
-74 -41 0
-75 -42 0
-79 -40 0
-80 -41 0
-81 -42 0
-106 -40 0
-107 -41 0
-108 -42 0
-121 -40 0
-122 -41 0
-123 -42 0
-106 -43 0
-107 -44 0
-108 -45 0
-127 -43 0
-128 -44 0
-129 -45 0
-130 -43 0
-131 -44 0
-132 -45 0
-88 -46 0
-89 -47 0
-90 -48 0
-97 -46 0
-98 -47 0
-99 -48 0
-112 -46 0
-113 -47 0
-114 -48 0
-142 -46 0
-143 -47 0
-144 -48 0
-97 -49 0
-98 -50 0
-99 -51 0
-112 -49 0
-113 -50 0
-114 -51 0
-115 -55 0
-116 -56 0
-117 -57 0
-118 -58 0
-119 -59 0
-120 -60 0
-139 -58 0
-140 -59 0
-141 -60 0
-148 -58 0
-149 -59 0
-150 -60 0
-133 -61 0
-134 -62 0
-135 -63 0
-142 -61 0
-143 -62 0
-144 -63 0
-109 -64 0
-110 -65 0
-111 -66 0
-142 -64 0
-143 -65 0
-144 -66 0
-109 -70 0
-110 -71 0
-111 -72 0
-115 -70 0
-116 -71 0
-117 -72 0
-118 -70 0
-119 -71 0
-120 -72 0
-136 -70 0
-137 -71 0
-138 -72 0
-103 -73 0
-104 -74 0
-105 -75 0
-127 -73 0
-128 -74 0
-129 -75 0
-130 -73 0
-131 -74 0
-132 -75 0
-136 -73 0
-137 -74 0
-138 -75 0
-118 -76 0
-119 -77 0
-120 -78 0
-130 -76 0
-131 -77 0
-132 -78 0
-106 -79 0
-107 -80 0
-108 -81 0
-145 -79 0
-146 -80 0
-147 -81 0
-145 -82 0
-146 -83 0
-147 -84 0
-121 -85 0
-122 -86 0
-123 -87 0
-103 -88 0
-104 -89 0
-105 -90 0
-112 -88 0
-113 -89 0
-114 -90 0
-115 -88 0
-116 -89 0
-117 -90 0
-139 -88 0
-140 -89 0
-141 -90 0
-115 -91 0
-116 -92 0
-117 -93 0
-145 -91 0
-146 -92 0
-147 -93 0
-148 -91 0
-149 -92 0
-150 -93 0
-103 -94 0
-104 -95 0
-105 -96 0
-130 -94 0
-131 -95 0
-132 -96 0
-136 -97 0
-137 -98 0
-138 -99 0
-142 -97 0
-143 -98 0
-144 -99 0
-145 -97 0
-146 -98 0
-147 -99 0
-109 -100 0
-110 -101 0
-111 -102 0
-136 -100 0
-137 -101 0
-138 -102 0
-139 -100 0
-140 -101 0
-141 -102 0
-142 -100 0
-143 -101 0
-144 -102 0
